results/mps/Fattahi_setup_06.mps
NAME F-JSSP-SDST
ROWS
 N  OBJ
 E  c0      
 E  c1      
 E  c2      
 E  c3      
 E  c4      
 E  c5      
 E  c6      
 E  c7      
 E  c8      
 L  c9      
 L  c10     
 L  c11     
 L  c12     
 L  c13     
 L  c14     
 L  c15     
 L  c16     
 L  c17     
 L  c18     
 L  c19     
 L  c20     
 L  c21     
 L  c22     
 L  c23     
 G  c24     
 G  c25     
 G  c26     
 G  c27     
 G  c28     
 G  c29     
 G  c30     
 G  c31     
 G  c32     
 G  c33     
 G  c34     
 G  c35     
 G  c36     
 G  c37     
 G  c38     
 G  c39     
 G  c40     
 G  c41     
 G  c42     
 G  c43     
 G  c44     
 G  c45     
 G  c46     
 G  c47     
 G  c48     
 G  c49     
 G  c50     
 G  c51     
 G  c52     
 G  c53     
 G  c54     
 G  c55     
 G  c56     
 G  c57     
 G  c58     
 G  c59     
 G  c60     
 G  c61     
 G  c62     
 G  c63     
 G  c64     
 G  c65     
 G  c66     
 G  c67     
 G  c68     
 G  c69     
 G  c70     
 G  c71     
 G  c72     
 G  c73     
 G  c74     
 G  c75     
 G  c76     
 G  c77     
 G  c78     
 G  c79     
 G  c80     
 G  c81     
 G  c82     
 G  c83     
 G  c84     
 G  c85     
 G  c86     
 G  c87     
 G  c88     
 G  c89     
 G  c90     
 G  c91     
 G  c92     
 G  c93     
 G  c94     
 G  c95     
 G  c96     
 G  c97     
 G  c98     
 E  c99     
COLUMNS
    MARKER    'MARKER'                 'INTORG'
    B0(11)    c0        1
    B0(11)    c9        -1000000000
    B0(11)    c24       -17
    B0(11)    c25       -1000000017
    B0(11)    c36       -1000000000
    B0(11)    c37       -1000000000
    B0(11)    c38       -1000000000
    B0(11)    c39       -1000000000
    B0(11)    c40       -1000000000
    B0(11)    c41       -1000000000
    B0(11)    c99       -17
    B1(12)    c1        1
    B1(12)    c10       -1000000000
    B1(12)    c25       -1000000000
    B1(12)    c26       -40
    B1(12)    c27       -40
    B1(12)    c42       -1000000000
    B1(12)    c43       -1000000000
    B1(12)    c44       -1000000000
    B1(12)    c45       -1000000000
    B1(12)    c48       -1000000000
    B1(12)    c49       -1000000000
    B1(12)    c99       -40
    B2(13)    c1        1
    B2(13)    c11       -1000000000
    B2(13)    c26       -130
    B2(13)    c27       -1000000130
    B2(13)    c46       -1000000000
    B2(13)    c47       -1000000000
    B2(13)    c50       -1000000000
    B2(13)    c51       -1000000000
    B2(13)    c52       -1000000000
    B2(13)    c53       -1000000000
    B2(13)    c54       -1000000000
    B2(13)    c55       -1000000000
    B2(13)    c99       -130
    B3(12)    c2        1
    B3(12)    c12       -1000000000
    B3(12)    c27       -1000000000
    B3(12)    c56       -1000000000
    B3(12)    c57       -1000000000
    B3(12)    c60       -1000000000
    B3(12)    c61       -1000000000
    B3(12)    c62       -1000000000
    B3(12)    c63       -1000000000
    B3(12)    c66       -1000000000
    B3(12)    c67       -1000000000
    B3(12)    c99       -50
    B4(9)     c2        1
    B4(9)     c13       -1000000000
    B4(9)     c58       -1000000000
    B4(9)     c59       -1000000000
    B4(9)     c64       -1000000000
    B4(9)     c65       -1000000000
    B4(9)     c68       -1000000000
    B4(9)     c69       -1000000000
    B4(9)     c99       -60
    B5(11)    c3        1
    B5(11)    c14       -1000000000
    B5(11)    c28       -30
    B5(11)    c29       -1000000030
    B5(11)    c36       -1000000000
    B5(11)    c37       -1000000000
    B5(11)    c42       -1000000000
    B5(11)    c43       -1000000000
    B5(11)    c70       -1000000000
    B5(11)    c71       -1000000000
    B5(11)    c99       -30
    B6(11)    c4        1
    B6(11)    c15       -1000000000
    B6(11)    c29       -1000000000
    B6(11)    c30       -150
    B6(11)    c38       -1000000000
    B6(11)    c39       -1000000000
    B6(11)    c44       -1000000000
    B6(11)    c45       -1000000000
    B6(11)    c72       -1000000000
    B6(11)    c73       -1000000000
    B6(11)    c99       -150
    B7(14)    c4        1
    B7(14)    c16       -1000000000
    B7(14)    c30       -160
    B7(14)    c46       -1000000000
    B7(14)    c47       -1000000000
    B7(14)    c56       -1000000000
    B7(14)    c57       -1000000000
    B7(14)    c74       -1000000000
    B7(14)    c75       -1000000000
    B7(14)    c76       -1000000000
    B7(14)    c77       -1000000000
    B7(14)    c78       -1000000000
    B7(14)    c79       -1000000000
    B7(14)    c99       -160
    B8(9)     c5        1
    B8(9)     c17       -1000000000
    B8(9)     c58       -1000000000
    B8(9)     c59       -1000000000
    B8(9)     c80       -1000000000
    B8(9)     c81       -1000000000
    B8(9)     c82       -1000000000
    B8(9)     c83       -1000000000
    B8(9)     c99       -70
    B9(13)    c6        1
    B9(13)    c18       -1000000000
    B9(13)    c31       -50
    B9(13)    c32       -50
    B9(13)    c40       -1000000000
    B9(13)    c41       -1000000000
    B9(13)    c48       -1000000000
    B9(13)    c49       -1000000000
    B9(13)    c70       -1000000000
    B9(13)    c71       -1000000000
    B9(13)    c72       -1000000000
    B9(13)    c73       -1000000000
    B9(13)    c99       -50
    B10(11)   c6        1
    B10(11)   c19       -1000000000
    B10(11)   c31       -60
    B10(11)   c32       -1000000060
    B10(11)   c50       -1000000000
    B10(11)   c51       -1000000000
    B10(11)   c60       -1000000000
    B10(11)   c61       -1000000000
    B10(11)   c74       -1000000000
    B10(11)   c75       -1000000000
    B10(11)   c99       -60
    B11(13)   c7        1
    B11(13)   c20       -1000000000
    B11(13)   c32       -1000000000
    B11(13)   c33       -170
    B11(13)   c34       -1000000170
    B11(13)   c35       -170
    B11(13)   c52       -1000000000
    B11(13)   c53       -1000000000
    B11(13)   c62       -1000000000
    B11(13)   c63       -1000000000
    B11(13)   c76       -1000000000
    B11(13)   c77       -1000000000
    B11(13)   c99       -170
    B12(10)   c7        1
    B12(10)   c21       -1000000000
    B12(10)   c33       -180
    B12(10)   c34       -180
    B12(10)   c35       -1000000180
    B12(10)   c64       -1000000000
    B12(10)   c65       -1000000000
    B12(10)   c80       -1000000000
    B12(10)   c81       -1000000000
    B12(10)   c99       -180
    B13(10)   c8        1
    B13(10)   c22       -1000000000
    B13(10)   c34       -1000000000
    B13(10)   c54       -1000000000
    B13(10)   c55       -1000000000
    B13(10)   c66       -1000000000
    B13(10)   c67       -1000000000
    B13(10)   c78       -1000000000
    B13(10)   c79       -1000000000
    B13(10)   c99       -90
    B14(8)    c8        1
    B14(8)    c23       -1000000000
    B14(8)    c35       -1000000000
    B14(8)    c68       -1000000000
    B14(8)    c69       -1000000000
    B14(8)    c82       -1000000000
    B14(8)    c83       -1000000000
    B14(8)    c99       -100
    B15(2)    c36       -1000000000
    B15(2)    c37       1000000000
    B16(2)    c38       -1000000000
    B16(2)    c39       1000000000
    B17(2)    c40       -1000000000
    B17(2)    c41       1000000000
    B18(2)    c42       -1000000000
    B18(2)    c43       1000000000
    B19(2)    c44       -1000000000
    B19(2)    c45       1000000000
    B20(2)    c46       -1000000000
    B20(2)    c47       1000000000
    B21(2)    c48       -1000000000
    B21(2)    c49       1000000000
    B22(2)    c50       -1000000000
    B22(2)    c51       1000000000
    B23(2)    c52       -1000000000
    B23(2)    c53       1000000000
    B24(2)    c54       -1000000000
    B24(2)    c55       1000000000
    B25(2)    c56       -1000000000
    B25(2)    c57       1000000000
    B26(2)    c58       -1000000000
    B26(2)    c59       1000000000
    B27(2)    c60       -1000000000
    B27(2)    c61       1000000000
    B28(2)    c62       -1000000000
    B28(2)    c63       1000000000
    B29(2)    c64       -1000000000
    B29(2)    c65       1000000000
    B30(2)    c66       -1000000000
    B30(2)    c67       1000000000
    B31(2)    c68       -1000000000
    B31(2)    c69       1000000000
    B32(2)    c70       -1000000000
    B32(2)    c71       1000000000
    B33(2)    c72       -1000000000
    B33(2)    c73       1000000000
    B34(2)    c74       -1000000000
    B34(2)    c75       1000000000
    B35(2)    c76       -1000000000
    B35(2)    c77       1000000000
    B36(2)    c78       -1000000000
    B36(2)    c79       1000000000
    B37(2)    c80       -1000000000
    B37(2)    c81       1000000000
    B38(2)    c82       -1000000000
    B38(2)    c83       1000000000
    MARKER    'MARKER'                 'INTEND'
    C39(11)   c9        1
    C39(11)   c24       -1
    C39(11)   c25       -1
    C39(11)   c36       1
    C39(11)   c37       -1
    C39(11)   c38       1
    C39(11)   c39       -1
    C39(11)   c40       1
    C39(11)   c41       -1
    C39(11)   c84       1
    C39(11)   c99       -1
    C40(13)   c10       1
    C40(13)   c24       1
    C40(13)   c25       1
    C40(13)   c26       -1
    C40(13)   c27       -1
    C40(13)   c42       1
    C40(13)   c43       -1
    C40(13)   c44       1
    C40(13)   c45       -1
    C40(13)   c48       1
    C40(13)   c49       -1
    C40(13)   c85       1
    C40(13)   c99       -1
    C41(15)   c11       1
    C41(15)   c24       1
    C41(15)   c25       1
    C41(15)   c26       -1
    C41(15)   c27       -1
    C41(15)   c46       1
    C41(15)   c47       -1
    C41(15)   c50       1
    C41(15)   c51       -1
    C41(15)   c52       1
    C41(15)   c53       -1
    C41(15)   c54       1
    C41(15)   c55       -1
    C41(15)   c86       1
    C41(15)   c99       -1
    C42(13)   c12       1
    C42(13)   c26       1
    C42(13)   c27       1
    C42(13)   c56       1
    C42(13)   c57       -1
    C42(13)   c60       1
    C42(13)   c61       -1
    C42(13)   c62       1
    C42(13)   c63       -1
    C42(13)   c66       1
    C42(13)   c67       -1
    C42(13)   c87       1
    C42(13)   c99       -1
    C43(11)   c13       1
    C43(11)   c26       1
    C43(11)   c27       1
    C43(11)   c58       1
    C43(11)   c59       -1
    C43(11)   c64       1
    C43(11)   c65       -1
    C43(11)   c68       1
    C43(11)   c69       -1
    C43(11)   c88       1
    C43(11)   c99       -1
    C44(11)   c14       1
    C44(11)   c28       -1
    C44(11)   c29       -1
    C44(11)   c36       -1
    C44(11)   c37       1
    C44(11)   c42       -1
    C44(11)   c43       1
    C44(11)   c70       1
    C44(11)   c71       -1
    C44(11)   c89       1
    C44(11)   c99       -1
    C45(12)   c15       1
    C45(12)   c28       1
    C45(12)   c29       1
    C45(12)   c30       -1
    C45(12)   c38       -1
    C45(12)   c39       1
    C45(12)   c44       -1
    C45(12)   c45       1
    C45(12)   c72       1
    C45(12)   c73       -1
    C45(12)   c90       1
    C45(12)   c99       -1
    C46(16)   c16       1
    C46(16)   c28       1
    C46(16)   c29       1
    C46(16)   c30       -1
    C46(16)   c46       -1
    C46(16)   c47       1
    C46(16)   c56       -1
    C46(16)   c57       1
    C46(16)   c74       1
    C46(16)   c75       -1
    C46(16)   c76       1
    C46(16)   c77       -1
    C46(16)   c78       1
    C46(16)   c79       -1
    C46(16)   c91       1
    C46(16)   c99       -1
    C47(10)   c17       1
    C47(10)   c30       1
    C47(10)   c58       -1
    C47(10)   c59       1
    C47(10)   c80       1
    C47(10)   c81       -1
    C47(10)   c82       1
    C47(10)   c83       -1
    C47(10)   c92       1
    C47(10)   c99       -1
    C48(13)   c18       1
    C48(13)   c31       -1
    C48(13)   c32       -1
    C48(13)   c40       -1
    C48(13)   c41       1
    C48(13)   c48       -1
    C48(13)   c49       1
    C48(13)   c70       -1
    C48(13)   c71       1
    C48(13)   c72       -1
    C48(13)   c73       1
    C48(13)   c93       1
    C48(13)   c99       -1
    C49(11)   c19       1
    C49(11)   c31       -1
    C49(11)   c32       -1
    C49(11)   c50       -1
    C49(11)   c51       1
    C49(11)   c60       -1
    C49(11)   c61       1
    C49(11)   c74       -1
    C49(11)   c75       1
    C49(11)   c94       1
    C49(11)   c99       -1
    C50(14)   c20       1
    C50(14)   c31       1
    C50(14)   c32       1
    C50(14)   c33       -1
    C50(14)   c34       -1
    C50(14)   c35       -1
    C50(14)   c52       -1
    C50(14)   c53       1
    C50(14)   c62       -1
    C50(14)   c63       1
    C50(14)   c76       -1
    C50(14)   c77       1
    C50(14)   c95       1
    C50(14)   c99       -1
    C51(12)   c21       1
    C51(12)   c31       1
    C51(12)   c32       1
    C51(12)   c33       -1
    C51(12)   c34       -1
    C51(12)   c35       -1
    C51(12)   c64       -1
    C51(12)   c65       1
    C51(12)   c80       -1
    C51(12)   c81       1
    C51(12)   c96       1
    C51(12)   c99       -1
    C52(12)   c22       1
    C52(12)   c33       1
    C52(12)   c34       1
    C52(12)   c35       1
    C52(12)   c54       -1
    C52(12)   c55       1
    C52(12)   c66       -1
    C52(12)   c67       1
    C52(12)   c78       -1
    C52(12)   c79       1
    C52(12)   c97       1
    C52(12)   c99       -1
    C53(10)   c23       1
    C53(10)   c33       1
    C53(10)   c34       1
    C53(10)   c35       1
    C53(10)   c68       -1
    C53(10)   c69       1
    C53(10)   c82       -1
    C53(10)   c83       1
    C53(10)   c98       1
    C53(10)   c99       -1
    C54(1)    OBJ       1
    C54(1)    c99       1
RHS
    RHS1      c0        1
    RHS1      c1        1
    RHS1      c2        1
    RHS1      c3        1
    RHS1      c4        1
    RHS1      c5        1
    RHS1      c6        1
    RHS1      c7        1
    RHS1      c8        1
    RHS1      c25       -1999999990
    RHS1      c27       -1999999990
    RHS1      c29       -1999999990
    RHS1      c32       -1999999995
    RHS1      c34       -1999999991
    RHS1      c35       -1999999991
    RHS1      c36       -2999999963
    RHS1      c37       -1999999972
    RHS1      c38       -2999999841
    RHS1      c39       -1999999975
    RHS1      c40       -2999999941
    RHS1      c41       -1999999973
    RHS1      c42       -2999999961
    RHS1      c43       -1999999951
    RHS1      c44       -2999999840
    RHS1      c45       -1999999950
    RHS1      c46       -2999999832
    RHS1      c47       -1999999861
    RHS1      c48       -2999999943
    RHS1      c49       -1999999953
    RHS1      c50       -2999999932
    RHS1      c51       -1999999860
    RHS1      c52       -2999999819
    RHS1      c53       -1999999860
    RHS1      c54       -2999999902
    RHS1      c55       -1999999862
    RHS1      c56       -2999999830
    RHS1      c57       -1999999937
    RHS1      c58       -2999999921
    RHS1      c59       -1999999929
    RHS1      c60       -2999999932
    RHS1      c61       -1999999944
    RHS1      c62       -2999999822
    RHS1      c63       -1999999940
    RHS1      c64       -2999999813
    RHS1      c65       -1999999932
    RHS1      c66       -2999999902
    RHS1      c67       -1999999940
    RHS1      c68       -2999999889
    RHS1      c69       -1999999932
    RHS1      c70       -2999999938
    RHS1      c71       -1999999961
    RHS1      c72       -2999999942
    RHS1      c73       -1999999840
    RHS1      c74       -2999999930
    RHS1      c75       -1999999833
    RHS1      c76       -2999999822
    RHS1      c77       -1999999828
    RHS1      c78       -2999999903
    RHS1      c79       -1999999832
    RHS1      c80       -2999999808
    RHS1      c81       -1999999924
    RHS1      c82       -2999999890
    RHS1      c83       -1999999920
BOUNDS
 BV BND1      B0(11)  
 BV BND1      B1(12)  
 BV BND1      B2(13)  
 BV BND1      B3(12)  
 BV BND1      B4(9)   
 BV BND1      B5(11)  
 BV BND1      B6(11)  
 BV BND1      B7(14)  
 BV BND1      B8(9)   
 BV BND1      B9(13)  
 BV BND1      B10(11) 
 BV BND1      B11(13) 
 BV BND1      B12(10) 
 BV BND1      B13(10) 
 BV BND1      B14(8)  
 BV BND1      B15(2)  
 BV BND1      B16(2)  
 BV BND1      B17(2)  
 BV BND1      B18(2)  
 BV BND1      B19(2)  
 BV BND1      B20(2)  
 BV BND1      B21(2)  
 BV BND1      B22(2)  
 BV BND1      B23(2)  
 BV BND1      B24(2)  
 BV BND1      B25(2)  
 BV BND1      B26(2)  
 BV BND1      B27(2)  
 BV BND1      B28(2)  
 BV BND1      B29(2)  
 BV BND1      B30(2)  
 BV BND1      B31(2)  
 BV BND1      B32(2)  
 BV BND1      B33(2)  
 BV BND1      B34(2)  
 BV BND1      B35(2)  
 BV BND1      B36(2)  
 BV BND1      B37(2)  
 BV BND1      B38(2)  
ENDATA
