results/sol/Fattahi_setup_06.sol
# Solution for model F-JSSP-SDST
# Objective value = 1540
B0(11) 1
B1(12) 1
B2(13) 0
B3(12) 1
B4(9) 0
B5(11) 1
B6(11) 1
B7(14) 0
B8(9) 1
B9(13) 0
B10(11) 1
B11(13) 0
B12(10) 1
B13(10) 1
B14(8) 0
B15(2) 0
B16(2) 0
B17(2) 0
B18(2) 0
B19(2) 0
B20(2) 0
B21(2) 1
B22(2) 0
B23(2) 0
B24(2) 0
B25(2) 0
B26(2) 1
B27(2) 1
B28(2) 0
B29(2) 1
B30(2) 0
B31(2) 0
B32(2) 1
B33(2) 1
B34(2) 0
B35(2) 0
B36(2) 0
B37(2) 1
B38(2) 0
C39(11) 0
C40(13) 27
C41(15) 0
C42(13) 68
C43(11) 0
C44(11) 76
C45(12) 116
C46(16) 0
C47(10) 266
C48(13) 0
C49(11) 0
C50(14) 0
C51(12) 60
C52(12) 240
C53(10) 0
C54(1) 1540
