.old/.old_results_backup1/log/Fattahi_setup_06.log

Gurobi 10.0.1 (win64) logging started Wed Apr 12 07:35:27 2023

Set parameter LogFile to value "results/log/Fattahi_setup_06.log"
Gurobi Optimizer version 10.0.1 build v10.0.1rc0 (win64)

CPU model: AMD Ryzen 7 3700X 8-Core Processor, instruction set [SSE2|AVX|AVX2]
Thread count: 8 physical cores, 16 logical processors, using up to 16 threads

Optimize a model with 100 rows, 55 columns and 400 nonzeros
Model fingerprint: 0xeb500c0d
Variable types: 16 continuous, 39 integer (39 binary)
Coefficient statistics:
  Matrix range     [1e+00, 1e+09]
  Objective range  [1e+00, 1e+00]
  Bounds range     [1e+00, 1e+00]
  RHS range        [1e+00, 3e+09]
Warning: Model contains large matrix coefficients
Warning: Model contains large rhs
         Consider reformulating model or setting NumericFocus parameter
         to avoid numerical issues.
Presolve removed 30 rows and 10 columns
Presolve time: 0.00s
Presolved: 70 rows, 45 columns, 297 nonzeros
Variable types: 15 continuous, 30 integer (30 binary)
Found heuristic solution: objective 1660.0000000
Found heuristic solution: objective 1547.9999949

Root relaxation: objective 1.261000e+03, 18 iterations, 0.00 seconds (0.00 work units)

    Nodes    |    Current Node    |     Objective Bounds      |     Work
 Expl Unexpl |  Obj  Depth IntInf | Incumbent    BestBd   Gap | It/Node Time

     0     0 1261.00000    0   11 1547.99999 1261.00000  18.5%     -    0s
     0     0 1345.75314    0    7 1547.99999 1345.75314  13.1%     -    0s
     0     0 1345.75314    0    7 1547.99999 1345.75314  13.1%     -    0s
     0     0 1373.51316    0    7 1547.99999 1373.51316  11.3%     -    0s
     0     0 1402.00000    0    7 1547.99999 1402.00000  9.43%     -    0s
     0     0 1446.00000    0    6 1547.99999 1446.00000  6.59%     -    0s
H    0     0                    1539.9999999 1446.00000  6.10%     -    0s
     0     0 1513.00000    0    6 1540.00000 1513.00000  1.75%     -    0s

Cutting planes:
  Learned: 4
  Implied bound: 3
  MIR: 5
  Flow cover: 9
  Relax-and-lift: 1

Explored 1 nodes (68 simplex iterations) in 0.02 seconds (0.00 work units)
Thread count was 16 (of 16 available processors)

Solution count 4: 1540 1540 1548 1660 

Optimal solution found (tolerance 1.00e-04)
Best objective 1.540000000000e+03, best bound 1.540000000000e+03, gap 0.0000%
Warning: variable name "y[job:0, stage:0, machine:1]" has a space
Warning: constraint name "precedence between 1,0 to 0,0 if x_[j,l,h,z,i]=1" has a space
Warning: to let Gurobi read it back, use rlp format
Warning: variable name "y[job:0, stage:0, machine:1]" has a space
Warning: constraint name "precedence between 1,0 to 0,0 if x_[j,l,h,z,i]=1" has a space
Warning: default variable names used to write mps file
Warning: default constraint names used to write mps file
Warning: variable name "y[job:0, stage:0, machine:1]" has a space
Warning: default variable names used to write solution file
